GLPSOL--GLPK LP/MIP Solver 5.0
Parameter(s) specified in the command line:
 --lp ../modeles/5_309.lp --log 5_309.log
Reading problem data from '../modeles/5_309.lp'...
1566 rows, 3100 columns, 10840 non-zeros
1545 integer variables, all of which are binary
4677 lines were read
GLPK Integer Optimizer 5.0
1566 rows, 3100 columns, 10840 non-zeros
1545 integer variables, all of which are binary
Preprocessing...
1530 constraint coefficient(s) were reduced
1566 rows, 3095 columns, 10835 non-zeros
1545 integer variables, all of which are binary
Scaling...
 A: min|aij| =  4.189e-05  max|aij| =  4.000e+00  ratio =  9.548e+04
GM: min|aij| =  5.689e-02  max|aij| =  1.758e+01  ratio =  3.090e+02
EQ: min|aij| =  3.236e-03  max|aij| =  1.000e+00  ratio =  3.090e+02
2N: min|aij| =  2.681e-03  max|aij| =  1.759e+00  ratio =  6.560e+02
Constructing initial basis...
Size of triangular part is 1566
Solving LP relaxation...
GLPK Simplex Optimizer 5.0
1566 rows, 3095 columns, 10835 non-zeros
      0: obj =   1.000000000e+01 inf =   2.450e+01 (11)
     94: obj =   4.999005027e-01 inf =   0.000e+00 (0)
*   326: obj =  -2.236026352e+00 inf =   4.479e-15 (0)
OPTIMAL LP SOLUTION FOUND
Integer optimization begins...
Long-step dual simplex will be used
+   326: mip =     not found yet >=              -inf        (1; 0)
+   334: >>>>>  -2.236026352e+00 >=  -2.236026352e+00   0.0% (7; 0)
+   334: mip =  -2.236026352e+00 >=     tree is empty   0.0% (0; 13)
INTEGER OPTIMAL SOLUTION FOUND
Time used:   0.0 secs
Memory used: 4.5 Mb (4691687 bytes)
